RAW/XT/fspd-mid/X-n167-k10.vrp_seed-2.out
19279	70.298	146.81
