RAW/XT/fspd-mid/X-n167-k10.vrp_seed-2.sol
Route #1: 5 86 103 152 124 63 99
Route #2: 67 89 7 25 93 118 47 126 127 61 58 56 155 69 83 22 73 137
Route #3: 6 157 9 48 68 162 62 123 128 14 96 17 52 15 92 30 79 121
Route #4: 76 71 60 158 95 59 112 120 82 11 39 141 70 133 24 31 40 50 19 142 132 154 54
Route #5: 44 55 131 109 16 28 29 2 114 136 37 84 146 51 10 72 53 32 75 160
Route #6: 8 129 145 163 88 111 122 1 13 77 57 12 104 64 107 49 20 66 138
Route #7: 42 3 130 143 113 21 149 4 153 116 148 97 115 151 38 159 46 140 119 134
Route #8: 87 144 18 23 139 27 108 102 100 135 150 98 45 81 164 34 65 110 101 36 105 80
Route #9: 85 156 125 43 117 147 91 161 90 94 166 106 33 74 41 78 165 26 35
Cost 19279.000000